Solver command line: []

Read LP format model from file C:\Users\wlhlm\AppData\Local\Temp\tmpktdsz_ou.pyomo.lp
Reading time = 39.09 seconds
objective: 970608 rows, 860831 columns, 79341438 nonzeros
Set parameter MIPGap to value 0.03
Gurobi Optimizer version 12.0.1 build v12.0.1rc0 (win64 - Windows 11.0 (26100.2))

CPU model: Intel(R) Core(TM) Ultra 7 258V, instruction set [SSE2|AVX|AVX2]
Thread count: 8 physical cores, 8 logical processors, using up to 8 threads

Non-default parameters:
MIPGap  0.03

Optimize a model with 970608 rows, 860831 columns and 79341438 nonzeros
Model fingerprint: 0x5ab1f236
Model has 8783 quadratic constraints
Variable types: 737856 continuous, 122975 integer (105408 binary)
Coefficient statistics:
  Matrix range     [6e-03, 2e+02]
  QMatrix range    [1e+00, 1e+00]
  Objective range  [1e-02, 1e+03]
  Bounds range     [1e+00, 3e+00]
  RHS range        [8e-05, 1e+04]
Presolve removed 158112 rows and 140544 columns (presolve time = 6s)...
Presolve removed 584116 rows and 478707 columns (presolve time = 11s)...
Presolve removed 654228 rows and 531413 columns (presolve time = 16s)...
Presolve removed 666049 rows and 540802 columns (presolve time = 20s)...
Presolve removed 668627 rows and 543380 columns (presolve time = 26s)...
Presolve removed 668627 rows and 543380 columns (presolve time = 31s)...
Presolve removed 677410 rows and 543380 columns (presolve time = 44s)...
Presolve removed 677410 rows and 543380 columns (presolve time = 47s)...
Presolve removed 677410 rows and 543381 columns (presolve time = 50s)...
Presolve removed 677410 rows and 543381 columns (presolve time = 59s)...
Presolve removed 773198 rows and 647838 columns
Presolve time: 59.95s
Presolved: 197410 rows, 212993 columns, 622034 nonzeros
Variable types: 149592 continuous, 63401 integer (63401 binary)
Performing another presolve...
Presolve removed 52708 rows and 52709 columns
Presolve time: 4.34s
Deterministic concurrent LP optimizer: primal and dual simplex
Showing primal log only...


Root simplex log...

Iteration    Objective       Primal Inf.    Dual Inf.      Time
       0    5.2447490e+07   2.015661e+07   6.055625e+13     66s
Concurrent spin time: 0.00s

Solved with dual simplex

Root simplex log...

Iteration    Objective       Primal Inf.    Dual Inf.      Time
   48756    2.6081329e+07   0.000000e+00   0.000000e+00     69s

Root relaxation: objective 2.608133e+07, 48756 iterations, 2.80 seconds (5.02 work units)
Total elapsed time = 68.64s (DegenMoves)

    Nodes    |    Current Node    |     Objective Bounds      |     Work
 Expl Unexpl |  Obj  Depth IntInf | Incumbent    BestBd   Gap | It/Node Time

     0     0 2.6081e+07    0  823          - 2.6081e+07      -     -   71s
H    0     0                    2.675269e+07 2.6081e+07  2.51%     -   71s

Explored 1 nodes (60420 simplex iterations) in 72.41 seconds (57.16 work units)
Thread count was 8 (of 8 available processors)

Solution count 1: 2.67527e+07 

Optimal solution found (tolerance 3.00e-02)
Best objective 2.675268592865e+07, best bound 2.608132940305e+07, gap 2.5095%

